data;

param w := 16;
param n := 10;
param min_h := 16;
param max_h := 23;

set BLOCKS := 1 2 3 4 5 6 7 8 9 10 ;

param:	width	height :=
	1	7	9
	2	3	12
	3	3	10
	4	4	7
	5	3	8
	6	3	7
	7	3	6
	8	3	5
	9	3	4
	10	3	3;